notebooks_exe/files/NoName-pulp.mps
*SENSE:Maximize
NAME          MODEL
ROWS
 N  OBJ
 L  C0000000
 L  C0000001
COLUMNS
    X0000000  C0000000   1.000000000000e+00
    X0000000  C0000001   3.000000000000e+00
    X0000000  OBJ        1.000000000000e+02
    X0000001  C0000000   2.000000000000e+00
    X0000001  C0000001   1.000000000000e+00
    X0000001  OBJ        1.000000000000e+02
RHS
    RHS       C0000000   1.600000000000e+01
    RHS       C0000001   1.800000000000e+01
BOUNDS
ENDATA
