notebooks_exe/files/NoName-pulp.sol
Optimal - objective value 1000.00000000
      0 C0000000              16                      40
      1 C0000001              18                      20
      0 X0000000               4                      -0
      1 X0000001               6                      -0
